c A SAT instance generated from a 3-CNF formula that had 45 clauses and 10 variables
p cnf 10 45
-6 9 3 0
8 1 -3 0
-10 2 -9 0
-9 -6 5 0
-5 -7 10 0
-4 10 9 0
8 2 -5 0
-5 -3 -9 0
-5 -8 -2 0
-7 -4 -1 0
8 7 -3 0
4 8 10 0
10 1 4 0
-7 -2 8 0
-6 10 4 0
-1 -8 -4 0
-7 1 -2 0
-9 -1 -3 0
-2 4 -5 0
-6 -10 -4 0
10 5 2 0
9 5 2 0
6 8 10 0
-9 -5 -10 0
-2 -8 9 0
1 4 5 0
-10 9 -4 0
-3 -7 10 0
-10 -2 8 0
7 1 6 0
-2 7 -5 0
-10 -7 8 0
3 9 5 0
-2 8 -4 0
-7 -1 9 0
-2 -7 10 0
8 -6 5 0
-5 -10 -2 0
-6 4 -5 0
2 5 9 0
5 7 4 0
-3 -6 -1 0
5 2 -6 0
3 -5 4 0
8 7 9 0
